data/rand/rand_014.gr
p tdp 15 51
1 3
1 6
1 7
1 8
1 10
1 15
2 4
2 6
2 9
2 10
2 14
3 6
3 7
3 15
4 5
4 6
4 7
4 9
4 12
4 13
4 14
5 6
5 7
5 8
5 9
5 11
5 13
6 8
6 9
6 11
6 12
6 13
6 14
6 15
7 8
7 10
7 15
8 9
8 10
8 13
8 15
9 10
9 12
9 13
9 14
10 11
10 15
11 13
12 13
12 15
13 15
