solutions/best/rand/rand_014.sol
9
5
9
1
0
15
4
3
6
5
8
13
13
9
2
10
